0 0 0 0
0 1 0 0
0 2 0 0
0 3 0 0
0 4 0 5
0 5 0 8
0 6 0 8
0 7 0 9
0 8 0 21
0 9 0 20
0 10 0 5
0 11 0 5
0 12 0 7
0 13 0 8
0 14 0 8
0 15 0 16
0 16 0 6
0 17 0 14
0 18 0 8
0 19 0 12
0 20 0 13
0 21 0 9
0 22 0 30
0 23 0 6
0 24 0 6
0 25 0 21
0 26 0 17
0 27 0 8
0 28 0 29
0 29 0 17
0 30 0 18
0 31 0 24
0 32 0 28
0 33 0 16
0 34 0 14
0 35 0 19
0 36 0 23
0 37 0 18
0 38 0 28
0 39 0 21
0 40 0 6
0 41 0 33
0 42 0 37
0 43 0 7
0 44 0 21
0 45 0 16
0 46 0 31
0 47 0 9
0 48 0 41
0 49 0 32
0 50 0 44
0 51 0 23
0 52 0 7
0 53 0 49
0 54 0 31
0 55 0 38
0 56 0 51
0 57 0 40
0 58 0 52
0 59 0 14
0 60 0 41
0 61 0 38
0 62 0 40
0 63 0 37
0 64 0 45
0 65 0 41
0 66 0 24
0 67 0 24
0 68 0 52
0 69 0 30
0 70 0 30
0 71 0 45
0 72 0 28
0 73 0 24
0 74 0 20
0 75 0 24
0 76 0 52
0 77 0 40
0 78 0 62
0 79 0 58
0 80 0 59
0 81 0 44
0 82 0 47
0 83 0 57
0 84 0 47
0 85 0 54
0 86 0 52
0 87 0 58
0 88 0 42
0 89 0 68
0 90 0 59
0 91 0 33
0 92 0 29
0 93 0 68
0 94 0 36
0 95 0 59
0 96 0 51
0 97 0 67
0 98 0 43
0 99 0 45
0 100 0 46
0 101 0 37
0 102 0 58
0 103 0 46
0 104 0 57
0 105 0 72
0 106 0 53
0 107 0 53
0 108 0 57
0 109 0 57
0 110 0 78
0 111 0 71
0 112 0 59
0 113 0 67
0 114 0 62
0 115 0 72
0 116 0 68
0 117 0 66
0 118 0 79
0 119 0 78
0 120 0 74
0 121 0 83
